;test regex ^(?:(?:31(\\\/|-|\\.)(?:0?[13578]|1[02]))\\1|(?:(?:29|30)(\\\/|-|\\.)(?:0?[1,3-9]|1[0-2])\\2))(?:(?:1[6-9]|[2-9]\\d)?\\d{2})$|^(?:29(\\\/|-|\\.)0?2\\3(?:(?:(?:1[6-9]|[2-9]\\d)?(?:0[48]|[2468][048]|[13579][26])|(?:(?:16|[2468][048]|[3579][26])00))))$|^(?:0?[1-9]|1\\d|2[0-8])(\\\/|-|\\.)(?:(?:0?[1-9])|(?:1[0-2]))\\4(?:(?:1[6-9]|[2-9]\\d)?\\d{2})$
(declare-const X String)
(assert (str.in_re X (re.union (re.union (re.++ (re.++ (str.to_re "") (re.++ (re.union (re.++ (re.++ (str.to_re "31") (re.++ (re.union (re.union (re.++ (str.to_re "\\") (str.to_re "/")) (str.to_re "-")) (re.++ (str.to_re "\\") (re.diff re.allchar (str.to_re "\n")))) (re.union (re.++ (re.opt (str.to_re "0")) (str.to_re "13578")) (re.++ (str.to_re "1") (str.to_re "02"))))) (re.++ (str.to_re "\\") (str.to_re "1"))) (re.++ (re.union (str.to_re "29") (str.to_re "30")) (re.++ (re.union (re.union (re.++ (str.to_re "\\") (str.to_re "/")) (str.to_re "-")) (re.++ (str.to_re "\\") (re.diff re.allchar (str.to_re "\n")))) (re.++ (re.union (re.++ (re.opt (str.to_re "0")) (re.union (str.to_re "1") (re.union (str.to_re ",") (re.range "3" "9")))) (re.++ (str.to_re "1") (re.range "0" "2"))) (re.++ (str.to_re "\\") (str.to_re "2")))))) (re.++ (re.opt (re.union (re.++ (str.to_re "1") (re.range "6" "9")) (re.++ (re.range "2" "9") (re.++ (str.to_re "\\") (str.to_re "d"))))) (re.++ (str.to_re "\\") ((_ re.loop 2 2) (str.to_re "d")))))) (str.to_re "")) (re.++ (re.++ (str.to_re "") (re.++ (str.to_re "29") (re.++ (re.union (re.union (re.++ (str.to_re "\\") (str.to_re "/")) (str.to_re "-")) (re.++ (str.to_re "\\") (re.diff re.allchar (str.to_re "\n")))) (re.++ (re.opt (str.to_re "0")) (re.++ (str.to_re "2") (re.++ (str.to_re "\\") (re.++ (str.to_re "3") (re.union (re.++ (re.opt (re.union (re.++ (str.to_re "1") (re.range "6" "9")) (re.++ (re.range "2" "9") (re.++ (str.to_re "\\") (str.to_re "d"))))) (re.union (re.union (re.++ (str.to_re "0") (str.to_re "48")) (re.++ (str.to_re "2468") (str.to_re "048"))) (re.++ (str.to_re "13579") (str.to_re "26")))) (re.++ (re.union (re.union (str.to_re "16") (re.++ (str.to_re "2468") (str.to_re "048"))) (re.++ (str.to_re "3579") (str.to_re "26"))) (str.to_re "00")))))))))) (str.to_re ""))) (re.++ (re.++ (str.to_re "") (re.++ (re.union (re.union (re.++ (re.opt (str.to_re "0")) (re.range "1" "9")) (re.++ (str.to_re "1") (re.++ (str.to_re "\\") (str.to_re "d")))) (re.++ (str.to_re "2") (re.range "0" "8"))) (re.++ (re.union (re.union (re.++ (str.to_re "\\") (str.to_re "/")) (str.to_re "-")) (re.++ (str.to_re "\\") (re.diff re.allchar (str.to_re "\n")))) (re.++ (re.union (re.++ (re.opt (str.to_re "0")) (re.range "1" "9")) (re.++ (str.to_re "1") (re.range "0" "2"))) (re.++ (str.to_re "\\") (re.++ (str.to_re "4") (re.++ (re.opt (re.union (re.++ (str.to_re "1") (re.range "6" "9")) (re.++ (re.range "2" "9") (re.++ (str.to_re "\\") (str.to_re "d"))))) (re.++ (str.to_re "\\") ((_ re.loop 2 2) (str.to_re "d")))))))))) (str.to_re "")))))
; sanitize danger characters:  < > ' " \ / &
(assert (not (str.in_re X (re.* (re.union (str.to_re "\u{3c}") (str.to_re "\u{3e}") (str.to_re "\u{27}") (str.to_re "\u{22}") (str.to_re "\u{5c}") (str.to_re "\u{2f}") (str.to_re "\u{26}"))))))
(assert (< 20 (str.len X)))
(check-sat)
(get-model)